BAYES
10
2 2 2 2 2 2 2 2 2 2
10
1 0
1 1
1 2
1 3
1 4
1 5
1 7
1 8
3 4 5 6
3 7 8 9

2
 0.572 0.438
2
 0.217 0.783
2
 0.348 0.652
2
 0.472 0.528
2
 0.572 0.438
2
 0.217 0.783
2
 0.348 0.652
2
 0.472 0.528
8
 0.424 0.576
 0.568 0.432
 0.552 0.448
 0.663 0.337
8
 0.424 0.576
 0.568 0.432
 0.552 0.448
 0.663 0.337